(set-logic QF_LIA)
(set-info :ran/ran2.smt2)
(set-info :smt-lib-version 2.0)
(declare-fun x1 () Int)
(declare-fun x2 () Int)
(declare-fun x3 () Int)
(assert (<= (+ (* (- 6) x1) (* (- 8) x2) (* (- 8) x3) ) 264))
(assert (<= (+ (* (- 2) x1) (* 6 x2) (* 1 x3) ) 2412))
(assert (<= (+ (* 8 x1) (* 10 x2) (* 4 x3) ) (- 561)))
(assert (<= (+ (* 1 x1) (* (- 7) x2) (* 9 x3) ) 1379))
(assert (<= (+ (* 10 x1) (* (- 6) x2) (* (- 3) x3) ) 1900))
(assert (<= (+ (* 8 x1) (* (- 8) x2) (* (- 1) x3) ) (- 1925)))
(assert (<= (+ (* 1 x1) (* 0 x2) (* 0 x3) ) 2511))
(assert (<= (+ (* (- 1) x1) (* 0 x2) (* 0 x3) ) 2511))
(assert (<= (+ (* 0 x1) (* 1 x2) (* 0 x3) ) 2511))
(assert (<= (+ (* 0 x1) (* (- 1) x2) (* 0 x3) ) 2511))
(assert (<= (+ (* 0 x1) (* 0 x2) (* 1 x3) ) 2511))
(assert (<= (+ (* 0 x1) (* 0 x2) (* (- 1) x3) ) 2511))
